[Adblock Plus 2.0]
! Title: 🆑️ Clean URLs Anti-Track
! Version: 20230304T0400

! ☆ ---- Legitimate URLS hortener ---- ☆
$removeparam=yclid
$removeparam=gclid
$removeparam=fbclid
$removeparam=_openstat
$removeparam=fb_action_ids
$removeparam=fb_comment_id
$removeparam=fb_action_types
$removeparam=fb_ref
$removeparam=fb_source
$removeparam=action_object_map
$removeparam=action_ref_map
$removeparam=_zucks_suid
$removeparam=adfrom
$removeparam=aiad_clid
$removeparam=maf
$removeparam=mindbox-message-key
$removeparam=nx_source
$removeparam=oprtrack
$removeparam=ysclid
&uclick=*&uclickhash=$removeparam
/?r=dir&zoneid=$removeparam
/?rb=*&zoneid=$removeparam
/?uclick=*;uclickhash=$removeparam
$removeparam=/^utm_/i,domain=~redir.tradedoubler.com|~sendgb.com|~allegro.pl|~tix.axs.com|~transfernow.com|~carrefourpl.snrpage.com
$removeparam=/^itm_/,domain=~redir.tradedoubler.com
$removeparam=/^stm_/,domain=~redir.tradedoubler.com
$removeparam=logTag
$removeparam=gclsrc
$removeparam=smid,domain=~opinion.no
$removeparam=/^WT\./i
$removeparam=/^WT_/i
$removeparam=/^WTmc_/i
$removeparam=/^WTmc\./i
$removeparam=ref_src
$removeparam=ref_url
$removeparam=dclid
$removeparam=afid
$removeparam=WebSiteMapNodeID
$removeparam=tt_content
$removeparam=tt_medium
$removeparam=scid
$document,removeparam=trackID
$removeparam=dTribesID
$removeparam=awc
$removeparam=exta
$removeparam=ranMID
$removeparam=ranEAID
$removeparam=ranSiteID
$removeparam=ranPublisherID
$removeparam=ranLinkID
$removeparam=ranLinkTypeID
$removeparam=ransiteID
$removeparam=pdpClick
$removeparam=LGWCODE
$removeparam=lgw_code
$removeparam=xtor
$removeparam=SRC
$removeparam=coagent
$removeparam=cotracking
$removeparam=ectrans
$removeparam=dartycid
$removeparam=bbaid
$removeparam=ppid
$removeparam=unptid
$removeparam=unp_tpcid
$removeparam=pgrp
$removeparam=mchn
$removeparam=IPID
$removeparam=asgtbndr
$removeparam=draftsforfriends
.userapi.com/impg^$removeparam=proxy
.userapi.com/impg^$removeparam=type
$removeparam=widget-ref
$removeparam=taid
$removeparam=eblink
$removeparam=AID,denyallow=firestore.googleapis.com,domain=~google.*|~disqus.*|~disquscdn.com
$removeparam=/^CJEVENT=/i
$removeparam=refd
$removeparam=/^hmb_/
$removeparam=FMID
$~xmlhttprequest,removeparam=LID
$removeparam=_ga,domain=~login.aliexpress.*
$removeparam=guccounter
$removeparam=guce_referrer
$removeparam=guce_referrer_sig
$removeparam=referringSource
$removeparam=im_edp
$removeparam=im_company
$removeparam=source_location
$removeparam=psf_variant
$removeparam=es_id
$removeparam=tracking_type
$removeparam=tracking_user
$removeparam=bxid
$removeparam=cndid
$removeparam=hasha
$removeparam=hashb
$removeparam=hashc
$removeparam=irgwc
$removeparam=/^clickid=/i
$removeparam=ito
$removeparam=c[0]
$removeparam=rlz
$removeparam=pcampaignid
$removeparam=igshid
$removeparam=curator_clanid,domain=~store.steampowered.*
$removeparam=snr,domain=steampowered.com|steamcommunity.com|steamgames.com
$removeparam=referrer,domain=~f4map.com|~deviantart.com|~github.com|~discover.*|~vimeo.*
$removeparam=ext_source
$removeparam=iradid
$removeparam=irpid
$removeparam=iradtype
$removeparam=irmptype
$removeparam=mp_value1
$removeparam=xid,domain=fortune.com|tcgplayer.com
$removeparam=__twitter_impression
$removeparam=email_work_card
$removeparam=tracking_source
$removeparam=scrolla
$~image,removeparam=itok
$removeparam=smtyp
$removeparam=tpcc
$removeparam=onetime_FromEmail
$~xmlhttprequest,removeparam=mbid
$removeparam=itid
$removeparam=full_trSrc
$removeparam=cmpg_for_af
$removeparam=/^ICID=/i,domain=~api.mapbox.com|~microsoft.com
$removeparam=/^utm-/
$~subdocument,removeparam=aff,domain=~discoverbank.com|~discover.com
$removeparam=mc_cid
$removeparam=mc_eid
$removeparam=/^intgrtn_/
$removeparam=afftag
$removeparam=/^affid=/i,domain=~redir.tradedoubler.com|~affiliate.geekbuying.com
$removeparam=referralCode
$removeparam=LSNPUBID
$removeparam=admitad_uid
$removeparam=traffic_type
$removeparam=traffic_id
$removeparam=dcmp
$removeparam=clickOrigin
$removeparam=clickSR
$removeparam=istCompanyId
$removeparam=istFeedId
$removeparam=istItemId
$removeparam=istBid
$removeparam=cmpid
$removeparam=CMP
$removeparam=/^OCID=/i,domain=~youtube.com|~reiseauskunft.bahn.de
$removeparam=tduid,domain=~tradedoubler.com
$removeparam=irclickid
$removeparam=irclicid
$removeparam=intcmp
$removeparam=sourceid,domain=~google.*
$removeparam=/^sharedid=/i
$removeparam=affiliates_ad_id
$removeparam=campaign_id,domain=~kochava.com|~unisportstore.*
$removeparam=wmlspartner
$removeparam=wpa_bd
$removeparam=wpa_pg_seller_id
$removeparam=wpa_ref_id
$removeparam=wpa_tag
$removeparam=wpa_aux_info
$removeparam=wpa_pos
$removeparam=wpa_plmt
$removeparam=wpa_aduid
$removeparam=sscid
$removeparam=rmmds
$removeparam=act_poa
$removeparam=utmid
$removeparam=pjxsource
$removeparam=pjxaffiliate_id
$removeparam=pjxclick_id
$removeparam=msclkid
$removeparam=litb_from
$removeparam=/^adword_/
$removeparam=adw_src_id
$removeparam=ggsub
$removeparam=ggntk
$removeparam=ggcid
$removeparam=ggpos
$removeparam=ggdev
$removeparam=ggdevm
$removeparam=ggplm
$removeparam=ggtgt
$removeparam=ftag
$removeparam=/^__xts__/
$removeparam=custlixnkid
$removeparam=akmClientCountry
$removeparam=hss_channel
$removeparam=mktids
$removeparam=mc_tc
$removeparam=ns_mchannel
$removeparam=ns_source
$removeparam=ns_campaign
$removeparam=ns_linkname
$removeparam=ns_fee
$removeparam=zanpid
$removeparam=wgu
$removeparam=wgexpiry
$removeparam=fsrc
$removeparam=Referrer
$removeparam=ad_pvid
$removeparam=algo_pvid
$removeparam=algo_expid
$removeparam=btsid
$removeparam=ws_ab_test
$removeparam=spLa
$removeparam=affTrack
$removeparam=shrsl_analytics_sscid
$removeparam=shrsl_analytics_sstid
$removeparam=SSAID
$removeparam=/^cm_mmc/
$removeparam=hsCtaTracking
$removeparam=tblci
$removeparam=tcid,domain=~rug.nl
$removeparam=/^dv_adwords_/
$removeparam=wdorigin
$removeparam=/^aff_id\d?=/i,domain=~affiliate.salestring.com
$removeparam=twitchReferral
$removeparam=elqTrackId
$removeparam=tctx
$removeparam=ad_medium
$removeparam=/^adgroup=/i
$removeparam=ads_name
$removeparam=ad_type
$removeparam=CAWELAID
$removeparam=partition_id
$removeparam=adgroup_id
$removeparam=rlsatarget
$removeparam=targetid
$removeparam=elqCampaignId
$removeparam=dc_campid
$removeparam=dc_adgroupid
$removeparam=adgroupid
$removeparam=AFFNAME
$removeparam=ACRID
$removeparam=ASUBID
$removeparam=ASID
$removeparam=cm_sp
$removeparam=cm_re
$removeparam=/^mbsy[=_]/
$removeparam=mkref
$removeparam=refer_code
$removeparam=AFID,domain=~chggtrx.com|~state.gov
$~stylesheet,~script,removeparam=campaignid
$removeparam=loc,document,domain=~geizhals.*|~ebay.*|~myanimelist.net|~microsoft.com|~liveperson.net|~saltenposten.no
$removeparam=acampID
$removeparam=pj_creativeid
$removeparam=pj_publisherid
$removeparam=track_campaignid
$removeparam=track_adgroupid
$removeparam=track_keyword
$removeparam=cmt
$removeparam=extcmp
$removeparam=at_gd
$removeparam=/^amp$/,domain=~eurasiantimes.com
$removeparam=/^amp=true$/
$removeparam=/^amp=1$/,domain=~listafriikki.com
$removeparam=_gl
$removeparam=gtmtrack
$removeparam=vifAdCount
$removeparam=vifNav
$removeparam=afcode
$removeparam=_source_page
$removeparam=vfadid
$removeparam=/^outputType=amp$/
$removeparam=orig_referrer
$removeparam=AgentCode
$removeparam=AgencyNbr
$removeparam=agentcodeweblink
$removeparam=ncid
$removeparam=/^ecid=/i
$removeparam=adcid
$removeparam=Osocial
$removeparam=adxnnl
$removeparam=adxnnlx
$removeparam=mkt_tok
@@^mkt_unsubscribe=$removeparam=mkt_tok
$removeparam=ampcid
$removeparam=affname
$removeparam=MID,domain=~media-cdn.costco.*|~community.arubanetworks.com
$removeparam=eid,document,denyallow=embed.tapkal.fi|myanimelist.net,domain=~activationspot.com|~anidb.net|~howlongtobeat.com|~piwigo.org|~vmware.com|~eventbrite.*|~egift.blackhawknetwork.com|~redeem.giftcards.com|~scopus.com|~stockmann.com|~jugem.jp|~kake.fi|~calendar.google.*
$removeparam=nr_email_referer
$removeparam=in_source
$removeparam=srnd
$removeparam=as_src
=adservice$removeparam=coid,domain=~radioreference.com|~finanzonline.bmf.gv.at
$removeparam=edsacid
$removeparam=action_type_map
$removeparam=/^bsft_/
$removeparam=/^dpg_/
$removeparam=/^adjust/
$removeparam=elq
$removeparam=elqaid
$removeparam=elqat
$removeparam=elqah
$removeparam=elqcst
$removeparam=elqcsid
$removeparam=/^ga_/
$removeparam=_hsenc
$removeparam=_hsmi
$removeparam=__hstc
$removeparam=__hssc
$removeparam=__hsfp
$removeparam=dgcid
$removeparam=/^hsa_/
$removeparam=gws_rd
$removeparam=sr_share
$removeparam=twclid
$removeparam=/^ds_/,domain=~clickserve.dartsearch.net
$removeparam=Adposition
$removeparam=adposition
$removeparam=gbraid
$removeparam=wbraid
$removeparam=cvosrc
$removeparam=/^cvo_/
$removeparam=ads_params
$removeparam=recurring_goal_id
$removeparam=CJPIXEL
$removeparam=LSNPUBNAME
$removeparam=/^affiliateID=/i
$removeparam=affiliate_id
$removeparam=affiliate_location_id
$removeparam=afn_sr
$removeparam=cjdata
$removeparam=cjeventid
$removeparam=cjpixel
$removeparam=click_id
$removeparam=cm_soc
$removeparam=o_lid
$removeparam=o_sch
$removeparam=o_xid
$removeparam=wtExtndSource
$removeparam=CAID
$removeparam=FpAffiliate
$removeparam=FpSub
$removeparam=rfsn
$removeparam=bclid
$removeparam=bcpid
$removeparam=bctid
$document,removeparam=trackid,domain=~nzpost.co.nz
$removeparam=strackid
$removeparam=afsrc
$removeparam=lctid
$~ping,removeparam=lcid,domain=~rekono.si
$removeparam=usource
$removeparam=/^mpid=/i,domain=~miguvideo.*
$removeparam=cjbatcheventid
$removeparam=cjpid
$removeparam=c3ch
$removeparam=c3nid
$removeparam=om_mmc
$removeparam=trackingCode
$removeparam=k_clickid
$removeparam=CJURL
$removeparam=affiliateCustomId
$removeparam=CJAID
$removeparam=CJCID
$removeparam=CJPID,domain=~keyade.com
$removeparam=CJSID
$removeparam=irmpname
$removeparam=REFERRAL_ID
$removeparam=impradid
$removeparam=impradname
$removeparam=cm_type
$removeparam=/^ref=cj$/i
$removeparam=/^ref=awin$/
$removeparam=/^source=pepperjam$/
$removeparam=/^source=cj$/
$removeparam=HACMP
$removeparam=/^source=awin$/i
$removeparam=affil
$removeparam=/^p\.utm_/
$removeparam=/^p\.litb_/
$removeparam=cjid
$removeparam=cl_crtv
$removeparam=cl_camp
$removeparam=cl_pub
$removeparam=cl_str
$removeparam=cl_aid
$removeparam=cl_vend
$removeparam=cl_ch
$removeparam=irsharedid
$removeparam=hvarAID
$removeparam=sv_affiliate_id
$removeparam=sv_campaign_id
$removeparam=/^sv_tax/
$removeparam=/^icid_/
$removeparam=LSNSUBSITE
$removeparam=afd_number
$removeparam=subacctid
$removeparam=subacctname
$removeparam=/affcid/i
$removeparam=afflid
$removeparam=fcref
$removeparam=mclk
$removeparam=mrnd
$removeparam=maid
$~xmlhttprequest,removeparam=mcid,domain=~miguvideo.*
$~xmlhttprequest,removeparam=msid
$removeparam=mpty
$removeparam=exactag_uk
$removeparam=stpcjid
$removeparam=LSID
$removeparam=affuid
$removeparam=icid2
$removeparam=refclickid
$removeparam=XCID
$removeparam=irclid
$removeparam=sp_source
$removeparam=sp_medium
$removeparam=sp_campaign
$removeparam=ad_id,domain=~olx.ua
$removeparam=/^affSource/i
$removeparam=/^_s=afl_impact$/
$removeparam=/^cid_/
$removeparam=cjReq
$removeparam=mms_chref
$removeparam=ir_cid
$removeparam=rmtsref
$removeparam=p_aid
$removeparam=p_sid
$removeparam=p_link
$removeparam=p_tok
$removeparam=_nc_vts_prog
$removeparam=depth_1-utm_source
$removeparam=cmp_id
$removeparam=adg_id
$removeparam=os_ehash
$removeparam=ldtag_cl
$removeparam=vero_conv
$removeparam=vero_id
$removeparam=a_aid
$removeparam=otracker
$removeparam=otracker1
$removeparam=ft_source
$removeparam=ft_medium
$removeparam=ref_source
$removeparam=ref_medium
$removeparam=ref_campaign
$removeparam=spMailingID
$removeparam=spUserID
$removeparam=spJobID
$removeparam=spReportId
$removeparam=track_click
$removeparam=actId
$removeparam=actCampaignType
$removeparam=actSource
$removeparam=oly_anon_id
$removeparam=oly_enc_id
$removeparam=/^wickedid=/i
$removeparam=/^wickedsource=/i
$removeparam=/^wickedplacement=/i
$removeparam=/^wickedkeyword=/i
$removeparam=/^wtm_/
$removeparam=rb_clickid
$removeparam=s_cid
$removeparam=ml_subscriber
$removeparam=ml_subscriber_hash
$removeparam=_branch_match_id
$removeparam=_branch_referrer
$removeparam=vc_lpp
$removeparam=aff_network
$removeparam=cj_affid
$removeparam=cj_affiliate
$removeparam=cj_affname
$removeparam=cj_cid
$removeparam=cj_event
$removeparam=cj_link_id
$removeparam=cj_link_name
$removeparam=cj_linkd
$removeparam=cj_pub_sid
$removeparam=cj_publisher
$removeparam=cj_webid
$removeparam=adj_campaign
$removeparam=adj_adgroup
$removeparam=adj_creative
$removeparam=_vsrefdom
$removeparam=ceneo_spo
$removeparam=/^from=ceneo$/
$removeparam=/^ref=ceneo$/
$removeparam=__s
@@||instagram.com/ajax^$xmlhttprequest,removeparam=__s
$removeparam=_kx
$removeparam=/^affsrc=/i
$removeparam=/^aff_sub\d?=/
$removeparam=afftrack
$removeparam=atid
$removeparam=/^clickref\d?=/
$removeparam=cuid
$removeparam=data1,domain=~web3.cmvm.pt
$removeparam=data2
$removeparam=data3
$removeparam=effi_id
$removeparam=effi_id2
$removeparam=fobs
$removeparam=pubref
$removeparam=sub1
$removeparam=sub2,domain=~go.dgdp.net
$removeparam=sub3
$removeparam=sub4
$removeparam=sub5
$removeparam=/^subid1=/i
$removeparam=/^subid2=/i
$removeparam=/^subid3=/i
$removeparam=/^subid4=/i
$removeparam=/^subid5=/i
$removeparam=tid1
$removeparam=tid2
$removeparam=tid3
$removeparam=tid4
$removeparam=avad
$removeparam=ckmc
$removeparam=ckmsc
$removeparam=__cn_tracker
$removeparam=/^sfmc_/
$removeparam=mktc
$removeparam=cm_ven
$removeparam=cm_cat
$removeparam=cm_pla
$removeparam=cm_ite
$removeparam=cm_lm
$removeparam=cm_ainfo
$removeparam=/^Offers\.com/
$removeparam=CSID
$removeparam=kpartnerid
$removeparam=/^source=connexity$/
$removeparam=cnxclid
$removeparam=/^refsource=webgains$/
$removeparam=/^source=webgains$/
$removeparam=/^source=tradedoubler$/
$removeparam=/^network=webgains$/i
$removeparam=/^ref=kelkoo/
$removeparam=/^from=kelkoo/
$removeparam=sClickID
$removeparam=/^source=partnerads$/
$removeparam=paid
$removeparam=pacid
$removeparam=pa-partnerid
||prispresseren.dk^$removeparam=/^amp;/
$removeparam=2p_affiliate_id
$removeparam=2p_click_token
$removeparam=mktgcampaignp
$removeparam=thg_ppc_campaign
$removeparam=adtype
$removeparam=tmad
$removeparam=tmcampid
$removeparam=tmplaceref
$removeparam=tmclickref
$removeparam=s_afcid
$removeparam=n_cid
$removeparam=int_cmpid
$removeparam=awid
$removeparam=szredirectid
$removeparam=porc
$removeparam=/^src=aff$/
$removeparam=af_ad
$removeparam=af_ad_id
$removeparam=af_ad_type
$removeparam=af_adset
$removeparam=af_adset_id
$removeparam=af_c_id
$removeparam=af_channel
$removeparam=af_click_lookback
$removeparam=af_cost_model
$removeparam=af_force_deeplink
$removeparam=af_keyword
$removeparam=af_keywords
$removeparam=af_prt
$removeparam=af_referral_type
$removeparam=af_referrer_customer_id
$removeparam=af_referrer_name
$removeparam=af_referrer_uid
$removeparam=af_siteid
$removeparam=/^af_sub\d=/
$removeparam=af_sub_siteid
$removeparam=is_retargeting
$removeparam=shortlink
$removeparam=/^pid=.*_int$/
$removeparam=deep_link_sub1
$removeparam=ClickThruEmail
$removeparam=ClickThruCustomerNumber
$removeparam=/^tracker=affiliatefuture$/i
$removeparam=affc
$removeparam=byp455
$removeparam=detail_from
$removeparam=sub_aff_id
$removeparam=/^sub_id\d=/
$removeparam=tg_ref
$removeparam=dt_dapp
$removeparam=dt_platform
$removeparam=i_cid
$removeparam=waad
$removeparam=af-campaign
$removeparam=_gac
$removeparam=af_medium
$removeparam=af_source
$removeparam=af_campaign
$removeparam=effect_medium
$removeparam=effect_source
$removeparam=effect_campaign
$removeparam=aftr
$removeparam=aftr_source
$removeparam=ko_click_id
$removeparam=rbx_source
$removeparam=rbx_medium
$removeparam=rbx_campaign
$removeparam=a_fid
$removeparam=mr%3AtrackingCode
$removeparam=mr%3AreferralID
$removeparam=mr%3Adevice
$removeparam=mr%3AadType
$removeparam=mr:trackingCode
$removeparam=mr:referralID
$removeparam=mr:device
$removeparam=mr:adType
$removeparam=mr:ad
$removeparam=mr:keyword
$removeparam=mr:match
$removeparam=mr:tid
$removeparam=mr:ploc
$removeparam=mr:iloc
$removeparam=mr:store
$removeparam=mr:filter
$removeparam=mr:adGroup
$removeparam=mr:placement
$removeparam=mr:ext
$removeparam=nrtv_cid
$removeparam=nrtv_as_src
$removeparam=trk_ref
$removeparam=ircid
$removeparam=cf_affiliate_id
$removeparam=rndad
$removeparam=ad_config_id
$removeparam=dfw_tracker
$removeparam=/^src=rss$/
$removeparam=/^otm_/
$removeparam=amp_device_id
$removeparam=awinaffid
$removeparam=cje
$removeparam=removedParams
$removeparam=iclid
$removeparam=_bta_tid
$removeparam=_bta_c
$removeparam=trk_contact
$removeparam=trk_msg
$removeparam=trk_module
$removeparam=trk_sid
$removeparam=gdfms
$removeparam=gdftrk
$removeparam=gdffi
$removeparam=redirect_log_mongo_id
$removeparam=redirect_mongo_id
$removeparam=sb_referer_host
$removeparam=mkwid
$removeparam=pcrid
$removeparam=ef_id
$removeparam=s_kwcid
$removeparam=dm_i
$removeparam=epik
$removeparam=/^mtm_/
$removeparam=/^matomo_/
$removeparam=/^piwik_/
$removeparam=pk_campaign
$removeparam=pk_medium
$removeparam=pk_source
$removeparam=pk_content
$removeparam=pk_kwd
$removeparam=pk_keyword
$removeparam=ig_mid
$removeparam=asclid
$removeparam=au_advert_id
$removeparam=au_car_id
$removeparam=ads_adid
$removeparam=ads_cmpid
$removeparam=ads_creative
$removeparam=ads_matchtype
$removeparam=ads_network
$removeparam=ads_targetid
$removeparam=elqTrack
$removeparam=/^from=rss$/
$removeparam=/^source=rss$/
$removeparam=/^ref=rss$/
$removeparam=/^via=rss$/
$removeparam=mindbox-click-id
$removeparam=dtpid
$removeparam=tj
$removeparam=tagtag_uid
$removeparam=afCampaignId
$removeparam=afCreativeId
$removeparam=affiliateCode
$removeparam=affcode
$removeparam=/^ref=admitad$/
$removeparam=/^source=admitad$/
$removeparam=/^target=admitad$/
$removeparam=/^referer=prisjakt/i
$removeparam=ref_lp
$removeparam=cx_testId
$removeparam=cx_testVariant
$removeparam=cx_artPos
$removeparam=belboon
$removeparam=channable
$removeparam=int_source
$removeparam=int_medium
$removeparam=int_content
$removeparam=int_campaign
$removeparam=sudaref
^presentid=webnews^$removeparam=presentid
$removeparam=pm_source
$removeparam=pm_medium
$removeparam=pm_campaign
$removeparam=x_tr_pto
$removeparam=oref
$removeparam=gaa_at
$removeparam=gaa_n
$removeparam=gaa_ts
$removeparam=gaa_sig
$removeparam=amp_gsa
$removeparam=vgo_ee
$removeparam=rpcid
$removeparam=/^ref=prisjakt/i
$removeparam=/^ref=pricespy/i
$removeparam=/^amp;utm_/
$removeparam=sap-outbound-id
$removeparam=analyticsCorrelationId
$removeparam=Affiliate_id
$removeparam=Cvosrc
$removeparam=oft_id
$removeparam=oft_k
$removeparam=oft_lk
$removeparam=oft_d
$removeparam=oft_c
$removeparam=oft_ck
$removeparam=oft_ids
$removeparam=oft_sk
$removeparam=adobe_mc
$removeparam=/^_sgm_/i
$removeparam=omnisendContactID
$removeparam=affiliate,domain=~justice.gov
$removeparam=trco_id
$removeparam=nosto_source
$removeparam=nosto
$removeparam=af_id
$removeparam=affi_id
$removeparam=retailAttributionToken
$removeparam=trafficSource
$removeparam=gps_adid
$removeparam=unicorn_click_id
$removeparam=ebisAdID
$document,removeparam=_clde
$document,removeparam=_cldee
$removeparam=is_pocket
$removeparam=app_clickref
$removeparam=as_campaign
$removeparam=as_camptype
$removeparam=as_channel
$removeparam=as_source
$removeparam=/^source=igodigital$/
$removeparam=qq-pf-to
$removeparam=mibextid
$removeparam=li_source
$removeparam=li_medium
/auto-append-spmid.js
$removeparam=cid,domain=abcnews.go.com|adguard.com|adshares.net|ae.com|anntaylor.com|apple.com|bitdefender.*|blair.com|childrensplace.com|dcard.tw|elmundo.es|emirates.com|factoryoutletstore.com|flipkart.com|gamestop.com|giphy.com|glasses.com|haband.com|intuit.com|jared.com|jcpenney.com|kay.com|kohls.com|lenovo.com|loft.com|marca.com|nbcnews.com|nike.com|nyandcompany.com|overstock.com|persol.com|proshop.*|radissonhotelsamericas.com|ray-ban.com|rei.com|rightmove.co.uk|samsung.com|stadium.*|staples.com|telenor.no|tokopedia.com|tommy.com|toms.com|tractorsupply.com|underarmour.com|vineyardvines.com|voxi.co.uk|wine.com|wsj.com|microsoft.com|xg4ken.com|zales.com
$removeparam=ref,domain=abebooks.com|accounts.binance.com|adobe.com|akuankka.fi|albiononline.com|altcustoms.com|amazon.*|app.blockfi.com|arvopaperi.fi|audible.*|baidu.com|bestbuy.com|bing.com|bitlox.com|bitwarden.com|blogit.fi|bookdepository.com|brave.com|buzzfeed.com|buzzfeednews.com|bybit.com|catch.com.au|codehs.com|comixology.*|coop.no|deal.no|dell.com|digidip.net|domains.ch|droix.net|eset.com|etsy.com|expo.io|facebook.*|facebookwkhpilnemxj7asaniu7vnjjbiltxjqhye3mhbshg7kx5tfyd.onion|fig.io|foreca.*|geeksforgeeks.org|github.com|github.io|goodreads.com|hintaopas.fi|hintaseuranta.fi|hs.fi|idenati.com|ikea.com|iltapulu.fi|imdb.com|is.fi|jasonsavard.com|kauppalehti.fi|kesaduuni.org|kickstarter.com|ku.fi|mastermind.ac|mediuutiset.fi|megapornfreehd.com|merrell.com|mikrobitti.fi|motouutiset.fi|oikotie.fi|omataloyhtio.fi|protonvpn.com|proton.me|puutarha.net|rakentaja.fi|reddit.com|reddittorjg6rue252oqsxryoxengawnmo46qy4kyii5wtqnwfj4ooad.onion|remppatori.fi|sahkovertailu.fi|sanoma.fi|scandinavianphoto.fi|schibsted.fi|semrush.com|shein.com|shodan.io|shopping.google.*|sketch.com|spiegel.de|sportskeeda.com|storyhouseegmont.fi|suomi24.fi|talouselama.fi|target.com|tekniikkatalous.fi|telsu.fi|thedailybeast.com|theregister.com|tivi.fi|tokenmetrics.com|twitch.tv|udemy.com|uusisuomi.fi|vultr.com|webhallen.no|woot.com|wormhole.app|yle.fi|zappos.com|zulily.com
$removeparam=tid,domain=clickbank.net|comixology.*|gap.com|gapcanada.ca|mintmobile.com|nhl.com|zulily.com
$removeparam=src,domain=3cx.com|adafruit.com|ashford.com|bluejeans.com|bose.*|brave.com|buyzero.de|cytron.io|digikey.*|elastix.org|engadget.com|getpocket.com|hallmark.com|hinta.fi|investors.com|kennethcole.com|kipling-usa.com|kubii.*|melopero.com|mozilla.org|msn.com|neeva.com|newbalance.com|nexo.io|officestationery.co.uk|okdo.com|raspipc.es|reichelt.*|thepihut.com|thunderbird.net|tiendatec.es|tokopedia.com|twitter.com|udemy.com|viking-direct.co.uk|webmd.com|welectron.com|wondershare.*|wuzhuiso.com|yahoo.com
$document,removeparam=source,denyallow=googlevideo.com,domain=1sol.io|ashford.com|asos.com|att.com|awd-it.*|bankofamerica.com|barenecessities.com|bedbathandbeyond.com|betterprogramming.pub|blavity.com|blog.getadblock.com|blogs.oracle.com|boscovs.com|boxboat.com|brownells.*|britishcornershop.co.uk|burkesoutlet.com|bybit.com|choicehotels.com|chollometro.com|coinpanel.com|contabo.com|cyberghostvpn.com|despegar.*|directv.com|discord.*|docs.google.com|docsend.com|drinkhint.com|edx.org|educba.com|eonline.com|escentual.com|eventbrite.*|fiverr.com|fool.com|forms.gle|gethotspotshield.com|gleam.io|goodcrypto.app|googleusercontent.com|greenhouse.io|greenvoice.fr|hammacher.com|hanes.com|hobbyhall.fi|hotspotshield.com|hottopic.com|housing.com|hp.com|instagram.com|itnext.io|jacquielawson.com|just-eat.co.uk|kasta.io|ladbible.com|medium.com|microsoftedgewelcome.microsoft.com|monster.fi|nautica.com|nortonsafe.search.ask.com|onehanesplace.com|outnorth.fi|petsupplies.com|phonesoap.com|quizlet.com|riteaid.com|runnode.com|search.brave.com|seekingalpha.com|sonos.com|spiceworks.com|squarespace.com|studio.co.uk|subscribe.gq.com|t.me|thedailybeast.com|tiktok.com|tokopedia.com|tommybahama.com|torrid.com|tous.com|tradingview.com|tumblr.com|twitter.com|user.qzone.qq.com|vimeo.com|webhint.io|wilsonsleather.com|wired.com|ylighting.com|youtube.com|yubo.live
$removeparam=mod,domain=barrons.com|dowjones.com|fnlondon.com|mansionglobal.com|marketwatch.com|penews.com|wsj.com
@@^mod=djemalertNEWS^$removeparam=mod
$removeparam=sid,domain=anrdoezrs.net|dpbolvw.net|gopjn.com|jdoqocy.com|kqzyfj.com|pepperjamnetwork.com|tkqlhce.com|gamereactor.*
$removeparam=from,domain=apkpure.com|bandcamp.com|browserling.com|luisaviaroma.com|sogou.com|onlinepngtools.com
$removeparam=keyword,domain=bindright.com|lendgo.com
$removeparam=id,domain=go.redirectingat.com|go.skimlinks.com|go.skimresources.com|karkkainen.com
$removeparam=offer_id,domain=catch.com.au|surfshark.com
$removeparam=adid,domain=nikkei.co.jp
||amazon.*^$removeparam=th
||amazon.*^$removeparam=linkCode
$removeparam=refRID
@@||amazon.*/gp/slredirect/picassoRedirect.html^$removeparam
$removeparam=dchild
||amazon.$~xmlhttprequest,removeparam=qid
||amazon.*^$removeparam=sr
||amazon.*^$removeparam=creative
$removeparam=creativeASIN
||amazon.*^$removeparam=/^sc_i/
$removeparam=trkCampaign
$removeparam=trk,domain=splashthat.com|aws.amazon.com|aws|xkcd.com
||amazon.*^$removeparam=/^__mk_*_/
||amazon.*^$removeparam=ascsubtag
||amazon.*^$removeparam=crid
||amazon.*^$removeparam=/^cv_ct_/
||amazon.*^$removeparam=sprefix
||amazon.*^$removeparam=ac_md
$removeparam=coliid
$removeparam=geniuslink
||amazon.$removeparam=aaxitk
||amazon.$removeparam=/^pd_rd_/
||amazon.*^$removeparam=twitchToken
||amazon.*^$removeparam=sigts
||amazon.*^$removeparam=sig
||amazon.*^$removeparam=ref-refURL
||amazon.*^$removeparam=imprToken
||amazon.*^$removeparam=store_ref
||amazon.*^$removeparam=lp_asins
||amazon.*^$removeparam=lp_slot
||amazon.*^$removeparam=lp_page_asin
||amazon.*^$removeparam=asc_contentid
||amazon.*^$removeparam=asc_contenttype
||amazon.*^$removeparam=visitId
||amazon.*^$removeparam=field-lbr_brands_browse-bin
||amazon.*^$removeparam=maas
||amazon.*^$removeparam=/^aa_/
||amazon.*^$removeparam=asc_item
||amazon.*^$removeparam=m
||amazon.*^$removeparam=refinements
||amazon.*^$removeparam=qsid
||amazon.*^$removeparam=sres
||amazon.*^$removeparam=srpt
||amazon.$removeparam=ingress
$removeparam=hvadid
$removeparam=hvpos
$removeparam=hvnetw
$removeparam=hvrand
$removeparam=hvpone
$removeparam=hvptwo
$removeparam=hvqmt
$removeparam=hvdev
$removeparam=hvdvcmdl
$removeparam=hvlocint
$removeparam=hvlocphy
$removeparam=hvtargid
$removeparam=adgrpid
$removeparam=hvbmt
$removeparam=hvexid
$removeparam=cstrackid
||amazon.$removeparam=SubscriptionId
||amazon.*^$removeparam=hydadcr
||amazon.*^$removeparam=orig
$removeparam=%2AVersion%2A,domain=amazon.*
$removeparam=%2Aentries%2A,domain=amazon.*
$removeparam=pldnSite,domain=amazon.*
$removeparam=newts,domain=amazon.*
$removeparam=returnFromLogin,domain=amazon.*
@@/b/ref=$removeparam=ie
||amazon.*^$removeparam=tag
||amazon.*^$removeparam=channel
||amazon.*^$removeparam=qu
||amazon.*/dp/$removeparam=rps,document
||amazon.*^$removeparam=content-id
||amazon.*^$removeparam=colid
||amazon.*/dp/$removeparam=s,document
||gaming.amazon.com^$removeparam=redirectRoute
||amazon.$removeparam=sbo
||bing.com/search?$removeparam=/^form=/i
||bing.com^$removeparam=sp
$removeparam=sc,domain=bing.com|qvc.com|startpage.com
$removeparam=sk,domain=bing.com|aliexpress.*
||bing.com^$removeparam=qs
||bing.com^$removeparam=PC
||bing.com/search^$removeparam=pc
||bing.com^$removeparam=aqs
||bing.com^$removeparam=pglt
||bing.com^$removeparam=pq
||bing.com^$removeparam=refig
||bing.com^$removeparam=go
||bing.com/search?$removeparam=cvid
||bing.com^$removeparam=/^sh[a-np-z0-9]/
||bing.com^$removeparam=nclid
||bing.com^$removeparam=crslsl
||bing.com^$removeparam=ecount
||bing.com^$removeparam=efirst
||bing.com^$removeparam=mkt
||bing.com^$removeparam=qpvt
||bing.com^$removeparam=rdr
||bing.com^$removeparam=rdrig
||bing.com^$removeparam=rnoreward
||bing.com^$removeparam=rqpiodemo
||bing.com^$removeparam=skipopalnative
||bing.com^$removeparam=toWww
||bing.com^$removeparam=redig
||bing.com^$removeparam=wsso
||bing.com^$removeparam=ts
||bing.*^$removeparam=wlexpsignin
||bing.*^$removeparam=cc
||bing.*^$removeparam=PUBL
||bing.*^$removeparam=CREA
@@||bing.com/account/action$removeparam=cc
$removeparam=_trkparms
$removeparam=_trksid
$removeparam=_from
$removeparam=sacat
$removeparam=amdata,domain=ebay.*
$removeparam=hash,domain=ebay.*
||ebay.$removeparam=mkevt
||ebay.$removeparam=mkcid
||ebay.$removeparam=customid
||ebay.$removeparam=chn
||ebay.$removeparam=mkrid
||ebay.$removeparam=mktype
$removeparam=googleloc
||ebay.$removeparam=poi
||ebay.$removeparam=mkgroupid
||ebay.$removeparam=abcId
$removeparam=_sacat,domain=~ebay.*
||ebay.$removeparam=campid
||ebay.$removeparam=toolid
$removeparam=crlp,domain=ebay.*
$removeparam=MT_ID,domain=ebay.*
$removeparam=geo_id,domain=ebay.*
$removeparam=device,domain=ebay.*
$removeparam=cmpgn,domain=ebay.*
||ebay.*/itm/$removeparam=LH_BIN
$removeparam=rpp_cid
||ebay.*$removeparam=mkpid
||ebay.*$removeparam=emsid
||ebay.*$removeparam=euid
||ebay.*$removeparam=bu
||ebay.*$removeparam=crd
||ebay.*$removeparam=sojTags
||ebay.$removeparam=ch
||ebay.$removeparam=ut
||ebay.$removeparam=osub
||ebay.$removeparam=segname
$removeparam=hc_ref
$removeparam=hc_location
$removeparam=sfnsn
?*__$~xmlhttprequest,removeparam=/^__[bce-z]/,domain=facebook.com|facebookwkhpilnemxj7asaniu7vnjjbiltxjqhye3mhbshg7kx5tfyd.onion|messenger.com
$removeparam=acontext
$removeparam=dti
$removeparam=fref
$removeparam=/^hc_/,domain=facebook.*|facebookwkhpilnemxj7asaniu7vnjjbiltxjqhye3mhbshg7kx5tfyd.onion|messenger.com
$removeparam=lst,domain=facebook.*|facebookwkhpilnemxj7asaniu7vnjjbiltxjqhye3mhbshg7kx5tfyd.onion|messenger.com
$removeparam=/^pn_/,domain=facebook.*|facebookwkhpilnemxj7asaniu7vnjjbiltxjqhye3mhbshg7kx5tfyd.onion|messenger.com
$removeparam=privacy_mutation_token
$removeparam=settings_tracking
$removeparam=/^zero_/,domain=facebook.*|facebookwkhpilnemxj7asaniu7vnjjbiltxjqhye3mhbshg7kx5tfyd.onion|messenger.com
||facebook.com/ads^$removeparam=session_id
$~xmlhttprequest,removeparam=/^refsrc=/i
$removeparam=_rdr
$removeparam=_ft_
$removeparam=Medium,domain=facebook.com|facebookwkhpilnemxj7asaniu7vnjjbiltxjqhye3mhbshg7kx5tfyd.onion|messenger.com
$removeparam=m_entstream_source
$removeparam=referral_code,domain=facebook.*|facebookwkhpilnemxj7asaniu7vnjjbiltxjqhye3mhbshg7kx5tfyd.onion|messenger.com
$removeparam=referral_story_type,domain=facebook.*|facebookwkhpilnemxj7asaniu7vnjjbiltxjqhye3mhbshg7kx5tfyd.onion|messenger.com
$removeparam=_nc_cat,domain=~instagram.com
||instagram.*.fna.fbcdn.net^$removeparam=ccb,domain=~instagram.com